120
1000
200
200
199
199
198
197
196
195
195
194
194
194
193
192
192
192
191
191
191
191
190
188
187
187
187
187
187
187
187
186
186
186
186
185
185
185
185
185
184
183
183
183
182
182
182
181
181
180
180
180
180
180
179
179
179
179
179
179
177
177
177
177
177
177
176
176
175
173
173
172
172
171
171
171
170
170
169
169
169
169
169
168
168
167
167
166
165
165
164
164
164
163
163
162
160
160
160
160
160
159
159
159
158
158
156
156
156
156
155
155
155
155
155
154
153
153
153
153
152
150
